p tdp 102 101
61 23
27 99
85 25
51 98
11 52
36 100
43 54
36 71
32 65
80 102
89 82
76 68
60 94
72 53
16 29
5 19
79 95
70 11
13 4
60 50
63 39
97 52
41 59
43 21
61 17
54 2
7 42
21 40
84 48
24 68
101 100
88 27
95 30
51 90
25 78
33 47
55 16
34 35
94 81
49 51
48 58
100 8
53 64
37 28
45 24
102 59
57 32
91 38
88 22
28 86
61 30
92 54
8 60
26 31
57 66
50 74
56 10
62 34
93 14
77 67
77 39
70 99
30 3
82 35
80 3
96 18
15 29
20 46
34 99
83 58
25 44
49 73
77 94
91 82
41 1
31 16
12 42
48 1
2 93
75 85
19 6
7 18
51 57
25 9
78 13
21 82
73 28
8 3
53 33
53 68
46 29
93 49
26 87
69 36
60 5
99 16
42 10
7 32
69 76
78 43
69 62
